p tw 160 32801 2 
1 82 
1 83 
1 86 
1 87 
1 89 
1 91 
1 93 
1 95 
1 97 
1 100 
1 101 
1 103 
1 105 
1 107 
1 110 
1 111 
1 113 
1 115 
1 117 
1 119 
1 122 
1 123 
1 125 
1 127 
1 129 
1 132 
1 133 
1 135 
1 138 
1 139 
1 141 
1 143 
1 146 
1 148 
1 149 
1 151 
1 153 
1 155 
1 158 
1 159 
2 81 
2 84 
2 85 
2 88 
2 90 
2 92 
2 94 
2 96 
2 98 
2 99 
2 102 
2 104 
2 106 
2 108 
2 109 
2 112 
2 114 
2 116 
2 118 
2 120 
2 121 
2 124 
2 126 
2 128 
2 130 
2 131 
2 134 
2 136 
2 137 
2 140 
2 142 
2 144 
2 145 
2 147 
2 150 
2 152 
2 154 
2 156 
2 157 
2 160 
3 4 
3 82 
3 83 
3 86 
3 87 
3 90 
3 92 
3 94 
3 96 
3 98 
3 100 
3 102 
3 104 
3 105 
3 108 
3 110 
3 112 
3 114 
3 115 
3 118 
3 120 
3 122 
3 124 
3 125 
3 127 
3 130 
3 132 
3 134 
3 136 
3 138 
3 140 
3 142 
3 143 
3 146 
3 148 
3 149 
3 151 
3 153 
3 156 
3 158 
3 160 
4 81 
4 84 
4 85 
4 88 
4 89 
4 91 
4 93 
4 95 
4 97 
4 99 
4 101 
4 103 
4 106 
4 107 
4 109 
4 111 
4 113 
4 116 
4 117 
4 119 
4 121 
4 123 
4 126 
4 128 
4 129 
4 131 
4 133 
4 135 
4 137 
4 139 
4 141 
4 144 
4 145 
4 147 
4 150 
4 152 
4 154 
4 155 
4 157 
4 159 
5 6 
5 82 
5 84 
5 86 
5 88 
5 89 
5 91 
5 93 
5 96 
5 97 
5 100 
5 102 
5 103 
5 106 
5 107 
5 110 
5 112 
5 113 
5 116 
5 118 
5 119 
5 122 
5 124 
5 126 
5 128 
5 130 
5 132 
5 134 
5 136 
5 138 
5 139 
5 141 
5 144 
5 146 
5 148 
5 150 
5 152 
5 154 
5 156 
5 158 
5 160 
6 81 
6 83 
6 85 
6 87 
6 90 
6 92 
6 94 
6 95 
6 98 
6 99 
6 101 
6 104 
6 105 
6 108 
6 109 
6 111 
6 114 
6 115 
6 117 
6 120 
6 121 
6 123 
6 125 
6 127 
6 129 
6 131 
6 133 
6 135 
6 137 
6 140 
6 142 
6 143 
6 145 
6 147 
6 149 
6 151 
6 153 
6 155 
6 157 
6 159 
7 8 
7 81 
7 84 
7 86 
7 88 
7 89 
7 92 
7 94 
7 96 
7 98 
7 99 
7 102 
7 104 
7 105 
7 107 
7 110 
7 111 
7 113 
7 115 
7 118 
7 119 
7 121 
7 124 
7 125 
7 128 
7 129 
7 132 
7 133 
7 135 
7 138 
7 140 
7 141 
7 144 
7 146 
7 147 
7 149 
7 151 
7 154 
7 156 
7 157 
7 159 
8 82 
8 83 
8 85 
8 87 
8 90 
8 91 
8 93 
8 95 
8 97 
8 100 
8 101 
8 103 
8 106 
8 108 
8 109 
8 112 
8 114 
8 116 
8 117 
8 120 
8 122 
8 123 
8 126 
8 127 
8 130 
8 131 
8 134 
8 136 
8 137 
8 139 
8 142 
8 143 
8 145 
8 148 
8 150 
8 152 
8 153 
8 155 
8 158 
8 160 
9 10 
9 81 
9 84 
9 86 
9 88 
9 89 
9 91 
9 94 
9 95 
9 98 
9 100 
9 102 
9 104 
9 106 
9 108 
9 109 
9 112 
9 113 
9 116 
9 117 
9 120 
9 122 
9 123 
9 125 
9 128 
9 130 
9 131 
9 133 
9 136 
9 138 
9 139 
9 141 
9 143 
9 145 
9 147 
9 149 
9 151 
9 153 
9 156 
9 158 
9 159 
10 82 
10 83 
10 85 
10 87 
10 90 
10 92 
10 93 
10 96 
10 97 
10 99 
10 101 
10 103 
10 105 
10 107 
10 110 
10 111 
10 114 
10 115 
10 118 
10 119 
10 121 
10 124 
10 126 
10 127 
10 129 
10 132 
10 134 
10 135 
10 137 
10 140 
10 142 
10 144 
10 146 
10 148 
10 150 
10 152 
10 154 
10 155 
10 157 
10 160 
11 12 
11 82 
11 84 
11 86 
11 87 
11 90 
11 91 
11 94 
11 96 
11 97 
11 99 
11 101 
11 104 
11 106 
11 108 
11 110 
11 111 
11 113 
11 116 
11 118 
11 120 
11 121 
11 123 
11 126 
11 127 
11 130 
11 131 
11 134 
11 135 
11 137 
11 139 
11 141 
11 143 
11 146 
11 148 
11 149 
11 151 
11 154 
11 156 
11 157 
11 159 
12 81 
12 83 
12 85 
12 88 
12 89 
12 92 
12 93 
12 95 
12 98 
12 100 
12 102 
12 103 
12 105 
12 107 
12 109 
12 112 
12 114 
12 115 
12 117 
12 119 
12 122 
12 124 
12 125 
12 128 
12 129 
12 132 
12 133 
12 136 
12 138 
12 140 
12 142 
12 144 
12 145 
12 147 
12 150 
12 152 
12 153 
12 155 
12 158 
12 160 
13 14 
13 82 
13 84 
13 85 
13 87 
13 90 
13 91 
13 93 
13 95 
13 98 
13 100 
13 101 
13 104 
13 106 
13 108 
13 109 
13 111 
13 113 
13 115 
13 117 
13 119 
13 121 
13 124 
13 126 
13 128 
13 129 
13 132 
13 134 
13 136 
13 137 
13 140 
13 141 
13 144 
13 146 
13 147 
13 149 
13 151 
13 153 
13 156 
13 158 
13 160 
14 81 
14 83 
14 86 
14 88 
14 89 
14 92 
14 94 
14 96 
14 97 
14 99 
14 102 
14 103 
14 105 
14 107 
14 110 
14 112 
14 114 
14 116 
14 118 
14 120 
14 122 
14 123 
14 125 
14 127 
14 130 
14 131 
14 133 
14 135 
14 138 
14 139 
14 142 
14 143 
14 145 
14 148 
14 150 
14 152 
14 154 
14 155 
14 157 
14 159 
15 16 
15 82 
15 84 
15 85 
15 88 
15 90 
15 91 
15 93 
15 96 
15 97 
15 100 
15 102 
15 103 
15 105 
15 108 
15 109 
15 111 
15 114 
15 115 
15 118 
15 120 
15 122 
15 124 
15 125 
15 128 
15 129 
15 131 
15 133 
15 135 
15 137 
15 139 
15 142 
15 144 
15 145 
15 148 
15 149 
15 151 
15 154 
15 156 
15 158 
15 159 
16 81 
16 83 
16 86 
16 87 
16 89 
16 92 
16 94 
16 95 
16 98 
16 99 
16 101 
16 104 
16 106 
16 107 
16 110 
16 112 
16 113 
16 116 
16 117 
16 119 
16 121 
16 123 
16 126 
16 127 
16 130 
16 132 
16 134 
16 136 
16 138 
16 140 
16 141 
16 143 
16 146 
16 147 
16 150 
16 152 
16 153 
16 155 
16 157 
16 160 
17 18 
17 82 
17 84 
17 85 
17 87 
17 89 
17 91 
17 94 
17 96 
17 97 
17 100 
17 102 
17 104 
17 106 
17 107 
17 110 
17 111 
17 114 
17 116 
17 117 
17 120 
17 122 
17 124 
17 125 
17 127 
17 130 
17 132 
17 133 
17 135 
17 137 
17 140 
17 141 
17 144 
17 145 
17 147 
17 149 
17 152 
17 153 
17 155 
17 157 
17 160 
18 81 
18 83 
18 86 
18 88 
18 90 
18 92 
18 93 
18 95 
18 98 
18 99 
18 101 
18 103 
18 105 
18 108 
18 109 
18 112 
18 113 
18 115 
18 118 
18 119 
18 121 
18 123 
18 126 
18 128 
18 129 
18 131 
18 134 
18 136 
18 138 
18 139 
18 142 
18 143 
18 146 
18 148 
18 150 
18 151 
18 154 
18 156 
18 158 
18 159 
19 20 
19 82 
19 84 
19 86 
19 88 
19 89 
19 92 
19 94 
19 95 
19 97 
19 100 
19 101 
19 103 
19 105 
19 108 
19 110 
19 112 
19 113 
19 115 
19 117 
19 119 
19 121 
19 124 
19 126 
19 127 
19 130 
19 131 
19 133 
19 135 
19 137 
19 140 
19 142 
19 143 
19 145 
19 147 
19 149 
19 152 
19 154 
19 156 
19 158 
19 160 
20 81 
20 83 
20 85 
20 87 
20 90 
20 91 
20 93 
20 96 
20 98 
20 99 
20 102 
20 104 
20 106 
20 107 
20 109 
20 111 
20 114 
20 116 
20 118 
20 120 
20 122 
20 123 
20 125 
20 128 
20 129 
20 132 
20 134 
20 136 
20 138 
20 139 
20 141 
20 144 
20 146 
20 148 
20 150 
20 151 
20 153 
20 155 
20 157 
20 159 
21 22 
21 82 
21 84 
21 86 
21 88 
21 90 
21 92 
21 94 
21 95 
21 98 
21 100 
21 101 
21 104 
21 106 
21 108 
21 110 
21 111 
21 114 
21 116 
21 117 
21 120 
21 122 
21 123 
21 126 
21 128 
21 129 
21 132 
21 133 
21 135 
21 138 
21 140 
21 142 
21 144 
21 146 
21 148 
21 150 
21 152 
21 154 
21 155 
21 158 
21 159 
22 81 
22 83 
22 85 
22 87 
22 89 
22 91 
22 93 
22 96 
22 97 
22 99 
22 102 
22 103 
22 105 
22 107 
22 109 
22 112 
22 113 
22 115 
22 118 
22 119 
22 121 
22 124 
22 125 
22 127 
22 130 
22 131 
22 134 
22 136 
22 137 
22 139 
22 141 
22 143 
22 145 
22 147 
22 149 
22 151 
22 153 
22 156 
22 157 
22 160 
23 24 
23 81 
23 83 
23 86 
23 88 
23 90 
23 91 
23 93 
23 96 
23 97 
23 99 
23 101 
23 103 
23 105 
23 108 
23 110 
23 111 
23 114 
23 116 
23 117 
23 120 
23 121 
23 124 
23 126 
23 127 
23 130 
23 132 
23 133 
23 136 
23 138 
23 140 
23 141 
23 144 
23 145 
23 147 
23 150 
23 151 
23 153 
23 156 
23 158 
23 159 
24 82 
24 84 
24 85 
24 87 
24 89 
24 92 
24 94 
24 95 
24 98 
24 100 
24 102 
24 104 
24 106 
24 107 
24 109 
24 112 
24 113 
24 115 
24 118 
24 119 
24 122 
24 123 
24 125 
24 128 
24 129 
24 131 
24 134 
24 135 
24 137 
24 139 
24 142 
24 143 
24 146 
24 148 
24 149 
24 152 
24 154 
24 155 
24 157 
24 160 
25 26 
25 81 
25 84 
25 86 
25 87 
25 90 
25 91 
25 93 
25 95 
25 98 
25 100 
25 102 
25 103 
25 105 
25 107 
25 110 
25 112 
25 113 
25 116 
25 118 
25 120 
25 122 
25 123 
25 126 
25 127 
25 129 
25 131 
25 133 
25 135 
25 137 
25 140 
25 142 
25 144 
25 146 
25 147 
25 150 
25 151 
25 153 
25 156 
25 157 
25 160 
26 82 
26 83 
26 85 
26 88 
26 89 
26 92 
26 94 
26 96 
26 97 
26 99 
26 101 
26 104 
26 106 
26 108 
26 109 
26 111 
26 114 
26 115 
26 117 
26 119 
26 121 
26 124 
26 125 
26 128 
26 130 
26 132 
26 134 
26 136 
26 138 
26 139 
26 141 
26 143 
26 145 
26 148 
26 149 
26 152 
26 154 
26 155 
26 158 
26 159 
27 28 
27 81 
27 83 
27 85 
27 88 
27 90 
27 91 
27 94 
27 96 
27 97 
27 100 
27 102 
27 104 
27 106 
27 107 
27 110 
27 112 
27 114 
27 115 
27 117 
27 119 
27 121 
27 123 
27 126 
27 127 
27 129 
27 131 
27 134 
27 135 
27 138 
27 139 
27 142 
27 144 
27 146 
27 147 
27 149 
27 152 
27 153 
27 156 
27 158 
27 159 
28 82 
28 84 
28 86 
28 87 
28 89 
28 92 
28 93 
28 95 
28 98 
28 99 
28 101 
28 103 
28 105 
28 108 
28 109 
28 111 
28 113 
28 116 
28 118 
28 120 
28 122 
28 124 
28 125 
28 128 
28 130 
28 132 
28 133 
28 136 
28 137 
28 140 
28 141 
28 143 
28 145 
28 148 
28 150 
28 151 
28 154 
28 155 
28 157 
28 160 
29 30 
29 81 
29 83 
29 86 
29 88 
29 90 
29 91 
29 93 
29 96 
29 98 
29 100 
29 101 
29 103 
29 106 
29 107 
29 110 
29 111 
29 113 
29 115 
29 117 
29 120 
29 122 
29 124 
29 125 
29 128 
29 130 
29 131 
29 134 
29 136 
29 137 
29 140 
29 142 
29 143 
29 146 
29 147 
29 149 
29 152 
29 154 
29 155 
29 157 
29 159 
30 82 
30 84 
30 85 
30 87 
30 89 
30 92 
30 94 
30 95 
30 97 
30 99 
30 102 
30 104 
30 105 
30 108 
30 109 
30 112 
30 114 
30 116 
30 118 
30 119 
30 121 
30 123 
30 126 
30 127 
30 129 
30 132 
30 133 
30 135 
30 138 
30 139 
30 141 
30 144 
30 145 
30 148 
30 150 
30 151 
30 153 
30 156 
30 158 
30 160 
31 32 
31 82 
31 83 
31 85 
31 88 
31 90 
31 91 
31 93 
31 96 
31 98 
31 100 
31 102 
31 104 
31 105 
31 108 
31 109 
31 112 
31 113 
31 116 
31 118 
31 119 
31 121 
31 123 
31 125 
31 127 
31 130 
31 132 
31 133 
31 135 
31 137 
31 140 
31 141 
31 143 
31 146 
31 147 
31 150 
31 152 
31 154 
31 155 
31 158 
31 159 
32 81 
32 84 
32 86 
32 87 
32 89 
32 92 
32 94 
32 95 
32 97 
32 99 
32 101 
32 103 
32 106 
32 107 
32 110 
32 111 
32 114 
32 115 
32 117 
32 120 
32 122 
32 124 
32 126 
32 128 
32 129 
32 131 
32 134 
32 136 
32 138 
32 139 
32 142 
32 144 
32 145 
32 148 
32 149 
32 151 
32 153 
32 156 
32 157 
32 160 
33 34 
33 81 
33 84 
33 85 
33 87 
33 90 
33 91 
33 94 
33 95 
33 97 
33 100 
33 101 
33 104 
33 105 
33 107 
33 110 
33 111 
33 114 
33 116 
33 118 
33 119 
33 121 
33 124 
33 125 
33 128 
33 130 
33 131 
33 133 
33 136 
33 138 
33 139 
33 142 
33 143 
33 146 
33 147 
33 150 
33 151 
33 154 
33 155 
33 158 
33 160 
34 82 
34 83 
34 86 
34 88 
34 89 
34 92 
34 93 
34 96 
34 98 
34 99 
34 102 
34 103 
34 106 
34 108 
34 109 
34 112 
34 113 
34 115 
34 117 
34 120 
34 122 
34 123 
34 126 
34 127 
34 129 
34 132 
34 134 
34 135 
34 137 
34 140 
34 141 
34 144 
34 145 
34 148 
34 149 
34 152 
34 153 
34 156 
34 157 
34 159 
35 36 
35 81 
35 84 
35 86 
35 87 
35 90 
35 91 
35 93 
35 95 
35 97 
35 99 
35 102 
35 103 
35 106 
35 108 
35 110 
35 112 
35 114 
35 115 
35 118 
35 120 
35 121 
35 123 
35 125 
35 128 
35 129 
35 132 
35 134 
35 135 
35 138 
35 140 
35 141 
35 143 
35 145 
35 147 
35 149 
35 152 
35 154 
35 155 
35 158 
35 160 
36 82 
36 83 
36 85 
36 88 
36 89 
36 92 
36 94 
36 96 
36 98 
36 100 
36 101 
36 104 
36 105 
36 107 
36 109 
36 111 
36 113 
36 116 
36 117 
36 119 
36 122 
36 124 
36 126 
36 127 
36 130 
36 131 
36 133 
36 136 
36 137 
36 139 
36 142 
36 144 
36 146 
36 148 
36 150 
36 151 
36 153 
36 156 
36 157 
36 159 
37 38 
37 82 
37 84 
37 85 
37 88 
37 89 
37 92 
37 93 
37 96 
37 98 
37 100 
37 101 
37 103 
37 105 
37 108 
37 110 
37 112 
37 114 
37 116 
37 117 
37 120 
37 121 
37 123 
37 125 
37 127 
37 129 
37 131 
37 134 
37 136 
37 138 
37 139 
37 141 
37 144 
37 146 
37 147 
37 149 
37 151 
37 154 
37 155 
37 157 
37 160 
38 81 
38 83 
38 86 
38 87 
38 90 
38 91 
38 94 
38 95 
38 97 
38 99 
38 102 
38 104 
38 106 
38 107 
38 109 
38 111 
38 113 
38 115 
38 118 
38 119 
38 122 
38 124 
38 126 
38 128 
38 130 
38 132 
38 133 
38 135 
38 137 
38 140 
38 142 
38 143 
38 145 
38 148 
38 150 
38 152 
38 153 
38 156 
38 158 
38 159 
39 40 
39 81 
39 84 
39 85 
39 88 
39 90 
39 92 
39 93 
39 95 
39 97 
39 100 
39 101 
39 104 
39 106 
39 108 
39 110 
39 112 
39 113 
39 115 
39 118 
39 119 
39 122 
39 124 
39 125 
39 127 
39 130 
39 131 
39 134 
39 135 
39 138 
39 140 
39 141 
39 144 
39 145 
39 148 
39 150 
39 151 
39 153 
39 155 
39 157 
39 159 
40 82 
40 83 
40 86 
40 87 
40 89 
40 91 
40 94 
40 96 
40 98 
40 99 
40 102 
40 103 
40 105 
40 107 
40 109 
40 111 
40 114 
40 116 
40 117 
40 120 
40 121 
40 123 
40 126 
40 128 
40 129 
40 132 
40 133 
40 136 
40 137 
40 139 
40 142 
40 143 
40 146 
40 147 
40 149 
40 152 
40 154 
40 156 
40 158 
40 160 
41 42 
41 81 
41 84 
41 86 
41 87 
41 90 
41 92 
41 94 
41 96 
41 97 
41 100 
41 101 
41 103 
41 105 
41 108 
41 109 
41 112 
41 114 
41 116 
41 117 
41 119 
41 122 
41 124 
41 125 
41 128 
41 129 
41 132 
41 134 
41 135 
41 137 
41 139 
41 141 
41 143 
41 146 
41 147 
41 150 
41 152 
41 153 
41 156 
41 157 
41 159 
42 82 
42 83 
42 85 
42 88 
42 89 
42 91 
42 93 
42 95 
42 98 
42 99 
42 102 
42 104 
42 106 
42 107 
42 110 
42 111 
42 113 
42 115 
42 118 
42 120 
42 121 
42 123 
42 126 
42 127 
42 130 
42 131 
42 133 
42 136 
42 138 
42 140 
42 142 
42 144 
42 145 
42 148 
42 149 
42 151 
42 154 
42 155 
42 158 
42 160 
43 44 
43 81 
43 84 
43 85 
43 87 
43 90 
43 92 
43 94 
43 95 
43 98 
43 100 
43 102 
43 103 
43 105 
43 107 
43 110 
43 111 
43 113 
43 115 
43 117 
43 120 
43 121 
43 123 
43 125 
43 127 
43 130 
43 132 
43 134 
43 136 
43 137 
43 139 
43 141 
43 144 
43 145 
43 148 
43 150 
43 152 
43 154 
43 156 
43 158 
43 159 
44 82 
44 83 
44 86 
44 88 
44 89 
44 91 
44 93 
44 96 
44 97 
44 99 
44 101 
44 104 
44 106 
44 108 
44 109 
44 112 
44 114 
44 116 
44 118 
44 119 
44 122 
44 124 
44 126 
44 128 
44 129 
44 131 
44 133 
44 135 
44 138 
44 140 
44 142 
44 143 
44 146 
44 147 
44 149 
44 151 
44 153 
44 155 
44 157 
44 160 
45 46 
45 82 
45 83 
45 86 
45 87 
45 90 
45 92 
45 93 
45 95 
45 98 
45 99 
45 101 
45 104 
45 106 
45 107 
45 110 
45 112 
45 114 
45 116 
45 118 
45 119 
45 122 
45 124 
45 125 
45 127 
45 129 
45 131 
45 133 
45 136 
45 137 
45 139 
45 141 
45 144 
45 145 
45 147 
45 149 
45 152 
45 154 
45 156 
45 158 
45 159 
46 81 
46 84 
46 85 
46 88 
46 89 
46 91 
46 94 
46 96 
46 97 
46 100 
46 102 
46 103 
46 105 
46 108 
46 109 
46 111 
46 113 
46 115 
46 117 
46 120 
46 121 
46 123 
46 126 
46 128 
46 130 
46 132 
46 134 
46 135 
46 138 
46 140 
46 142 
46 143 
46 146 
46 148 
46 150 
46 151 
46 153 
46 155 
46 157 
46 160 
47 48 
47 81 
47 83 
47 86 
47 87 
47 89 
47 91 
47 94 
47 96 
47 98 
47 100 
47 101 
47 104 
47 105 
47 108 
47 109 
47 111 
47 113 
47 115 
47 118 
47 120 
47 122 
47 124 
47 126 
47 127 
47 129 
47 131 
47 134 
47 135 
47 138 
47 139 
47 141 
47 144 
47 145 
47 147 
47 150 
47 152 
47 154 
47 155 
47 158 
47 160 
48 82 
48 84 
48 85 
48 88 
48 90 
48 92 
48 93 
48 95 
48 97 
48 99 
48 102 
48 103 
48 106 
48 107 
48 110 
48 112 
48 114 
48 116 
48 117 
48 119 
48 121 
48 123 
48 125 
48 128 
48 130 
48 132 
48 133 
48 136 
48 137 
48 140 
48 142 
48 143 
48 146 
48 148 
48 149 
48 151 
48 153 
48 156 
48 157 
48 159 
49 50 
49 82 
49 83 
49 85 
49 88 
49 89 
49 91 
49 94 
49 95 
49 97 
49 100 
49 101 
49 104 
49 105 
49 107 
49 110 
49 112 
49 114 
49 115 
49 118 
49 120 
49 122 
49 123 
49 126 
49 128 
49 129 
49 132 
49 134 
49 136 
49 137 
49 140 
49 141 
49 143 
49 145 
49 147 
49 150 
49 151 
49 154 
49 156 
49 157 
49 159 
50 81 
50 84 
50 86 
50 87 
50 90 
50 92 
50 93 
50 96 
50 98 
50 99 
50 102 
50 103 
50 106 
50 108 
50 109 
50 111 
50 113 
50 116 
50 117 
50 119 
50 121 
50 124 
50 125 
50 127 
50 130 
50 131 
50 133 
50 135 
50 138 
50 139 
50 142 
50 144 
50 146 
50 148 
50 149 
50 152 
50 153 
50 155 
50 158 
50 160 
51 52 
51 82 
51 83 
51 85 
51 87 
51 89 
51 92 
51 93 
51 95 
51 98 
51 100 
51 102 
51 103 
51 106 
51 108 
51 110 
51 111 
51 114 
51 115 
51 118 
51 120 
51 121 
51 124 
51 126 
51 128 
51 130 
51 131 
51 133 
51 135 
51 138 
51 139 
51 141 
51 143 
51 146 
51 147 
51 150 
51 152 
51 153 
51 156 
51 157 
51 159 
52 81 
52 84 
52 86 
52 88 
52 90 
52 91 
52 94 
52 96 
52 97 
52 99 
52 101 
52 104 
52 105 
52 107 
52 109 
52 112 
52 113 
52 116 
52 117 
52 119 
52 122 
52 123 
52 125 
52 127 
52 129 
52 132 
52 134 
52 136 
52 137 
52 140 
52 142 
52 144 
52 145 
52 148 
52 149 
52 151 
52 154 
52 155 
52 158 
52 160 
53 54 
53 81 
53 83 
53 86 
53 88 
53 89 
53 91 
53 93 
53 95 
53 98 
53 100 
53 102 
53 104 
53 106 
53 108 
53 110 
53 111 
53 114 
53 116 
53 117 
53 119 
53 121 
53 124 
53 125 
53 127 
53 129 
53 132 
53 134 
53 135 
53 137 
53 139 
53 142 
53 143 
53 145 
53 148 
53 150 
53 151 
53 154 
53 156 
53 157 
53 160 
54 82 
54 84 
54 85 
54 87 
54 90 
54 92 
54 94 
54 96 
54 97 
54 99 
54 101 
54 103 
54 105 
54 107 
54 109 
54 112 
54 113 
54 115 
54 118 
54 120 
54 122 
54 123 
54 126 
54 128 
54 130 
54 131 
54 133 
54 136 
54 138 
54 140 
54 141 
54 144 
54 146 
54 147 
54 149 
54 152 
54 153 
54 155 
54 158 
54 159 
55 56 
55 81 
55 83 
55 85 
55 87 
55 89 
55 91 
55 94 
55 95 
55 97 
55 100 
55 101 
55 103 
55 106 
55 108 
55 109 
55 112 
55 113 
55 116 
55 118 
55 120 
55 121 
55 124 
55 125 
55 127 
55 129 
55 132 
55 133 
55 136 
55 138 
55 140 
55 142 
55 144 
55 146 
55 148 
55 149 
55 152 
55 154 
55 156 
55 157 
55 159 
56 82 
56 84 
56 86 
56 88 
56 90 
56 92 
56 93 
56 96 
56 98 
56 99 
56 102 
56 104 
56 105 
56 107 
56 110 
56 111 
56 114 
56 115 
56 117 
56 119 
56 122 
56 123 
56 126 
56 128 
56 130 
56 131 
56 134 
56 135 
56 137 
56 139 
56 141 
56 143 
56 145 
56 147 
56 150 
56 151 
56 153 
56 155 
56 158 
56 160 
57 58 
57 81 
57 84 
57 85 
57 88 
57 90 
57 91 
57 93 
57 95 
57 98 
57 99 
57 101 
57 104 
57 105 
57 107 
57 109 
57 112 
57 114 
57 115 
57 117 
57 120 
57 122 
57 124 
57 126 
57 127 
57 130 
57 132 
57 133 
57 135 
57 138 
57 139 
57 141 
57 143 
57 146 
57 148 
57 149 
57 152 
57 154 
57 156 
57 157 
57 160 
58 82 
58 83 
58 86 
58 87 
58 89 
58 92 
58 94 
58 96 
58 97 
58 100 
58 102 
58 103 
58 106 
58 108 
58 110 
58 111 
58 113 
58 116 
58 118 
58 119 
58 121 
58 123 
58 125 
58 128 
58 129 
58 131 
58 134 
58 136 
58 137 
58 140 
58 142 
58 144 
58 145 
58 147 
58 150 
58 151 
58 153 
58 155 
58 158 
58 159 
59 60 
59 81 
59 83 
59 85 
59 87 
59 90 
59 92 
59 93 
59 96 
59 97 
59 100 
59 102 
59 104 
59 105 
59 108 
59 110 
59 111 
59 113 
59 116 
59 117 
59 119 
59 122 
59 123 
59 126 
59 128 
59 129 
59 131 
59 133 
59 136 
59 138 
59 140 
59 141 
59 143 
59 145 
59 148 
59 149 
59 152 
59 154 
59 156 
59 157 
59 160 
60 82 
60 84 
60 86 
60 88 
60 89 
60 91 
60 94 
60 95 
60 98 
60 99 
60 101 
60 103 
60 106 
60 107 
60 109 
60 112 
60 114 
60 115 
60 118 
60 120 
60 121 
60 124 
60 125 
60 127 
60 130 
60 132 
60 134 
60 135 
60 137 
60 139 
60 142 
60 144 
60 146 
60 147 
60 150 
60 151 
60 153 
60 155 
60 158 
60 159 
61 62 
61 81 
61 83 
61 86 
61 87 
61 89 
61 92 
61 93 
61 96 
61 97 
61 100 
61 101 
61 104 
61 106 
61 107 
61 109 
61 112 
61 114 
61 115 
61 117 
61 120 
61 121 
61 123 
61 125 
61 128 
61 130 
61 131 
61 133 
61 135 
61 137 
61 140 
61 141 
61 144 
61 146 
61 148 
61 150 
61 151 
61 154 
61 156 
61 158 
61 160 
62 82 
62 84 
62 85 
62 88 
62 90 
62 91 
62 94 
62 95 
62 98 
62 99 
62 102 
62 103 
62 105 
62 108 
62 110 
62 111 
62 113 
62 116 
62 118 
62 119 
62 122 
62 124 
62 126 
62 127 
62 129 
62 132 
62 134 
62 136 
62 138 
62 139 
62 142 
62 143 
62 145 
62 147 
62 149 
62 152 
62 153 
62 155 
62 157 
62 159 
63 64 
63 81 
63 83 
63 85 
63 87 
63 89 
63 91 
63 94 
63 95 
63 98 
63 99 
63 102 
63 103 
63 105 
63 108 
63 110 
63 112 
63 114 
63 116 
63 117 
63 119 
63 122 
63 124 
63 126 
63 128 
63 130 
63 131 
63 134 
63 135 
63 137 
63 140 
63 141 
63 144 
63 146 
63 148 
63 149 
63 151 
63 154 
63 155 
63 158 
63 159 
64 82 
64 84 
64 86 
64 88 
64 90 
64 92 
64 93 
64 96 
64 97 
64 100 
64 101 
64 104 
64 106 
64 107 
64 109 
64 111 
64 113 
64 115 
64 118 
64 120 
64 121 
64 123 
64 125 
64 127 
64 129 
64 132 
64 133 
64 136 
64 138 
64 139 
64 142 
64 143 
64 145 
64 147 
64 150 
64 152 
64 153 
64 156 
64 157 
64 160 
65 66 
65 81 
65 84 
65 86 
65 88 
65 89 
65 92 
65 93 
65 95 
65 97 
65 100 
65 102 
65 104 
65 105 
65 107 
65 109 
65 111 
65 114 
65 116 
65 118 
65 120 
65 121 
65 124 
65 126 
65 127 
65 129 
65 131 
65 134 
65 136 
65 137 
65 140 
65 141 
65 143 
65 146 
65 148 
65 149 
65 152 
65 153 
65 155 
65 158 
65 159 
66 82 
66 83 
66 85 
66 87 
66 90 
66 91 
66 94 
66 96 
66 98 
66 99 
66 101 
66 103 
66 106 
66 108 
66 110 
66 112 
66 113 
66 115 
66 117 
66 119 
66 122 
66 123 
66 125 
66 128 
66 130 
66 132 
66 133 
66 135 
66 138 
66 139 
66 142 
66 144 
66 145 
66 147 
66 150 
66 151 
66 154 
66 156 
66 157 
66 160 
67 68 
67 82 
67 83 
67 86 
67 88 
67 90 
67 91 
67 94 
67 95 
67 98 
67 100 
67 101 
67 103 
67 105 
67 107 
67 109 
67 111 
67 114 
67 116 
67 118 
67 119 
67 121 
67 123 
67 125 
67 128 
67 130 
67 131 
67 134 
67 135 
67 138 
67 140 
67 141 
67 144 
67 145 
67 148 
67 149 
67 152 
67 153 
67 156 
67 157 
67 160 
68 81 
68 84 
68 85 
68 87 
68 89 
68 92 
68 93 
68 96 
68 97 
68 99 
68 102 
68 104 
68 106 
68 108 
68 110 
68 112 
68 113 
68 115 
68 117 
68 120 
68 122 
68 124 
68 126 
68 127 
68 129 
68 132 
68 133 
68 136 
68 137 
68 139 
68 142 
68 143 
68 146 
68 147 
68 150 
68 151 
68 154 
68 155 
68 158 
68 159 
69 70 
69 81 
69 83 
69 86 
69 88 
69 90 
69 92 
69 94 
69 95 
69 97 
69 100 
69 102 
69 103 
69 106 
69 108 
69 109 
69 111 
69 114 
69 115 
69 118 
69 119 
69 122 
69 123 
69 126 
69 127 
69 130 
69 132 
69 133 
69 136 
69 137 
69 139 
69 141 
69 144 
69 146 
69 147 
69 149 
69 151 
69 154 
69 155 
69 157 
69 160 
70 82 
70 84 
70 85 
70 87 
70 89 
70 91 
70 93 
70 96 
70 98 
70 99 
70 101 
70 104 
70 105 
70 107 
70 110 
70 112 
70 113 
70 116 
70 117 
70 120 
70 121 
70 124 
70 125 
70 128 
70 129 
70 131 
70 134 
70 135 
70 138 
70 140 
70 142 
70 143 
70 145 
70 148 
70 150 
70 152 
70 153 
70 156 
70 158 
70 159 
71 72 
71 82 
71 84 
71 86 
71 87 
71 90 
71 91 
71 94 
71 96 
71 98 
71 100 
71 102 
71 103 
71 106 
71 107 
71 109 
71 112 
71 114 
71 115 
71 117 
71 119 
71 121 
71 124 
71 126 
71 127 
71 129 
71 131 
71 133 
71 136 
71 138 
71 140 
71 141 
71 143 
71 145 
71 148 
71 150 
71 151 
71 154 
71 155 
71 157 
71 159 
72 81 
72 83 
72 85 
72 88 
72 89 
72 92 
72 93 
72 95 
72 97 
72 99 
72 101 
72 104 
72 105 
72 108 
72 110 
72 111 
72 113 
72 116 
72 118 
72 120 
72 122 
72 123 
72 125 
72 128 
72 130 
72 132 
72 134 
72 135 
72 137 
72 139 
72 142 
72 144 
72 146 
72 147 
72 149 
72 152 
72 153 
72 156 
72 158 
72 160 
73 74 
73 82 
73 83 
73 86 
73 88 
73 90 
73 91 
73 94 
73 95 
73 97 
73 99 
73 102 
73 104 
73 105 
73 108 
73 110 
73 112 
73 113 
73 115 
73 117 
73 120 
73 121 
73 124 
73 125 
73 128 
73 129 
73 131 
73 133 
73 136 
73 137 
73 139 
73 141 
73 144 
73 146 
73 148 
73 150 
73 152 
73 153 
73 155 
73 157 
73 160 
74 81 
74 84 
74 85 
74 87 
74 89 
74 92 
74 93 
74 96 
74 98 
74 100 
74 101 
74 103 
74 106 
74 107 
74 109 
74 111 
74 114 
74 116 
74 118 
74 119 
74 122 
74 123 
74 126 
74 127 
74 130 
74 132 
74 134 
74 135 
74 138 
74 140 
74 142 
74 143 
74 145 
74 147 
74 149 
74 151 
74 154 
74 156 
74 158 
74 159 
75 76 
75 81 
75 84 
75 85 
75 88 
75 89 
75 91 
75 94 
75 96 
75 98 
75 99 
75 101 
75 103 
75 106 
75 108 
75 110 
75 111 
75 114 
75 115 
75 118 
75 119 
75 122 
75 123 
75 125 
75 127 
75 129 
75 131 
75 133 
75 136 
75 137 
75 140 
75 141 
75 143 
75 146 
75 148 
75 150 
75 152 
75 153 
75 156 
75 158 
75 160 
76 82 
76 83 
76 86 
76 87 
76 90 
76 92 
76 93 
76 95 
76 97 
76 100 
76 102 
76 104 
76 105 
76 107 
76 109 
76 112 
76 113 
76 116 
76 117 
76 120 
76 121 
76 124 
76 126 
76 128 
76 130 
76 132 
76 134 
76 135 
76 138 
76 139 
76 142 
76 144 
76 145 
76 147 
76 149 
76 151 
76 154 
76 155 
76 157 
76 159 
77 78 
77 81 
77 84 
77 86 
77 87 
77 89 
77 91 
77 93 
77 96 
77 98 
77 100 
77 101 
77 104 
77 105 
77 108 
77 110 
77 112 
77 114 
77 115 
77 118 
77 119 
77 121 
77 123 
77 126 
77 128 
77 130 
77 132 
77 133 
77 136 
77 137 
77 139 
77 142 
77 144 
77 145 
77 148 
77 149 
77 152 
77 153 
77 155 
77 157 
77 159 
78 82 
78 83 
78 85 
78 88 
78 90 
78 92 
78 94 
78 95 
78 97 
78 99 
78 102 
78 103 
78 106 
78 107 
78 109 
78 111 
78 113 
78 116 
78 117 
78 120 
78 122 
78 124 
78 125 
78 127 
78 129 
78 131 
78 134 
78 135 
78 138 
78 140 
78 141 
78 143 
78 146 
78 147 
78 150 
78 151 
78 154 
78 156 
78 158 
78 160 
79 80 
79 81 
79 83 
79 85 
79 88 
79 90 
79 92 
79 94 
79 96 
79 98 
79 100 
79 101 
79 103 
79 106 
79 107 
79 110 
79 112 
79 113 
79 116 
79 118 
79 120 
79 121 
79 124 
79 126 
79 128 
79 129 
79 132 
79 133 
79 135 
79 137 
79 139 
79 141 
79 143 
79 145 
79 148 
79 149 
79 151 
79 153 
79 155 
79 158 
79 160 
80 82 
80 84 
80 86 
80 87 
80 89 
80 91 
80 93 
80 95 
80 97 
80 99 
80 102 
80 104 
80 105 
80 108 
80 109 
80 111 
80 114 
80 115 
80 117 
80 119 
80 122 
80 123 
80 125 
80 127 
80 130 
80 131 
80 134 
80 136 
80 138 
80 140 
80 142 
80 144 
80 146 
80 147 
80 150 
80 152 
80 154 
80 156 
80 157 
80 159 
81 82 
83 84 
85 86 
87 88 
89 90 
91 92 
93 94 
95 96 
97 98 
99 100 
101 102 
103 104 
105 106 
107 108 
109 110 
111 112 
113 114 
115 116 
117 118 
119 120 
121 122 
123 124 
125 126 
127 128 
129 130 
131 132 
133 134 
135 136 
137 138 
139 140 
141 142 
143 144 
145 146 
147 148 
149 150 
151 152 
153 154 
155 156 
157 158 
159 160 
